<number of tasks>
100

<cycle time>
1000

<order strength>
0.602


<task times>
1 231
2 27
3 41
4 455
5 199
6 210
7 377
8 158
9 193
10 61
11 233
12 51
13 40
14 257
15 26
16 278
17 441
18 249
19 245
20 106
21 255
22 531
23 128
24 553
25 48
26 91
27 75
28 401
29 113
30 53
31 255
32 253
33 450
34 315
35 240
36 53
37 464
38 32
39 94
40 583
41 33
42 137
43 162
44 155
45 209
46 473
47 384
48 516
49 123
50 198
51 258
52 185
53 362
54 450
55 112
56 45
57 74
58 84
59 329
60 230
61 425
62 91
63 92
64 67
65 350
66 130
67 132
68 159
69 111
70 199
71 227
72 200
73 198
74 465
75 312
76 322
77 403
78 196
79 55
80 166
81 130
82 171
83 23
84 31
85 72
86 185
87 418
88 88
89 213
90 506
91 139
92 59
93 512
94 394
95 158
96 69
97 203
98 223
99 177
100 163

<precedence relations>
1,9
2,10
3,12
4,8
4,13
5,11
5,13
6,13
7,19
7,22
7,24
8,14
9,18
10,15
11,17
12,16
13,18
13,19
14,22
15,20
16,21
17,23
18,22
18,23
18,24
19,43
19,44
19,45
19,46
19,47
19,49
19,50
20,25
21,27
22,26
22,27
23,26
23,27
24,26
24,27
25,29
26,28
26,30
26,31
26,32
27,30
27,31
27,32
28,33
29,34
30,35
30,36
30,37
30,38
30,39
30,50
31,36
31,37
31,38
31,39
32,36
32,37
32,38
33,43
34,40
35,41
36,42
36,43
36,46
36,47
36,56
37,42
37,43
37,45
37,49
38,42
38,43
39,42
39,44
39,51
39,56
40,50
41,49
42,48
42,52
42,80
43,72
43,80
43,85
44,82
44,83
45,56
45,58
45,75
46,52
46,80
47,51
48,53
49,54
49,56
49,62
50,55
50,56
50,62
51,55
51,57
52,55
52,58
52,82
53,60
54,59
55,61
56,63
56,78
56,80
57,61
57,62
57,63
58,63
59,65
60,64
61,67
61,69
61,85
62,66
62,68
62,87
63,79
63,83
63,85
64,70
65,71
66,73
66,74
67,72
68,91
69,75
69,86
70,77
71,76
72,79
73,78
73,82
74,80
74,83
74,85
74,92
74,97
76,81
77,82
78,83
78,85
78,86
79,84
79,86
79,87
80,82
80,86
81,88
82,89
82,90
83,99
83,100
84,91
84,92
88,93
89,94
90,95
91,97
91,98
91,100
92,96
92,98
92,99
92,100

<end>
